Route #1: 30 44 52 13 57 33 10
Route #2: 3 31 2 32 11 55 46 43 49 37 23 6
Route #3: 47 26 35 54 50 45 22 5 7 25 59 29
Route #4: 1 8 60 56 53 58 14 9 39
Route #5: 20 16 18 38 28 27 51 36 40
Route #6: 21 17 4 12 41
Route #7: 15 48 24
Route #8: 19 42 34
Route #9: 
cost 2109.311752835535
